200
1000
300
300
297
296
295
295
295
294
292
291
287
286
285
284
283
283
282
282
282
280
280
278
276
275
275
268
268
267
264
263
262
261
261
260
259
259
259
258
258
257
253
253
253
251
249
249
249
249
248
246
246
245
245
245
242
241
241
240
238
237
234
233
233
229
226
224
224
223
223
223
222
222
221
220
220
218
218
217
217
217
216
216
216
216
215
214
214
213
213
212
211
210
209
207
207
205
202
202
201
200
199
198
197
195
195
195
194
194
194
193
191
191
191
187
186
185
184
178
175
175
175
175
175
174
173
172
171
168
168
168
166
165
165
164
162
161
161
160
160
157
156
155
155
155
152
151
150
149
147
144
144
143
142
142
141
141
141
140
139
139
139
139
139
138
137
136
135
135
134
134
133
132
132
131
131
131
131
131
130
129
129
126
125
124
122
122
122
120
120
118
117
115
113
108
107
104
103
103
102
102
